61
1 0 22
2 0 22
2 1 31
3 0 20
3 1 33
3 2 10
4 0 4
4 1 21
4 2 22
4 3 4
5 0 18
5 1 28
5 2 28
5 3 12
5 4 8
6 0 29
6 1 5
6 2 5
6 3 34
6 4 29
6 5 1
7 0 2
7 1 18
7 2 24
7 3 34
7 4 12
7 5 23
7 6 4
8 0 12
8 1 14
8 2 9
8 3 34
8 4 5
8 5 18
8 6 34
8 7 29
9 0 17
9 1 34
9 2 24
9 3 9
9 4 31
9 5 20
9 6 26
9 7 3
9 8 27
10 0 24
10 1 11
10 2 13
10 3 21
10 4 8
10 5 31
10 6 17
10 7 17
10 8 3
10 9 13
11 0 24
11 1 7
11 2 30
11 3 16
11 4 25
11 5 13
11 6 8
11 7 7
11 8 10
11 9 19
11 10 2
12 0 29
12 1 4
12 2 30
12 3 26
12 4 25
12 5 34
12 6 25
12 7 14
12 8 10
12 9 13
12 10 5
12 11 30
13 0 30
13 1 5
13 2 34
13 3 34
13 4 23
13 5 16
13 6 10
13 7 32
13 8 3
13 9 9
13 10 13
13 11 3
13 12 17
14 0 14
14 1 10
14 2 1
14 3 27
14 4 23
14 5 30
14 6 19
14 7 13
14 8 9
14 9 23
14 10 25
14 11 32
14 12 17
14 13 6
15 0 15
15 1 15
15 2 8
15 3 14
15 4 4
15 5 17
15 6 8
15 7 12
15 8 10
15 9 9
15 10 27
15 11 17
15 12 4
15 13 5
15 14 13
16 0 31
16 1 23
16 2 4
16 3 24
16 4 18
16 5 29
16 6 21
16 7 16
16 8 14
16 9 14
16 10 3
16 11 22
16 12 34
16 13 5
16 14 19
16 15 20
17 0 10
17 1 35
17 2 2
17 3 11
17 4 25
17 5 25
17 6 29
17 7 34
17 8 17
17 9 29
17 10 13
17 11 3
17 12 34
17 13 34
17 14 20
17 15 8
17 16 19
18 0 14
18 1 9
18 2 12
18 3 25
18 4 12
18 5 13
18 6 19
18 7 23
18 8 15
18 9 7
18 10 11
18 11 12
18 12 25
18 13 11
18 14 19
18 15 32
18 16 8
18 17 23
19 0 20
19 1 31
19 2 8
19 3 17
19 4 11
19 5 27
19 6 16
19 7 4
19 8 3
19 9 19
19 10 35
19 11 28
19 12 29
19 13 18
19 14 19
19 15 16
19 16 26
19 17 18
19 18 14
20 0 19
20 1 18
20 2 3
20 3 11
20 4 12
20 5 23
20 6 17
20 7 4
20 8 13
20 9 21
20 10 24
20 11 12
20 12 7
20 13 32
20 14 7
20 15 34
20 16 31
20 17 7
20 18 35
20 19 19
21 0 5
21 1 31
21 2 23
21 3 11
21 4 19
21 5 7
21 6 5
21 7 10
21 8 21
21 9 11
21 10 20
21 11 7
21 12 15
21 13 9
21 14 4
21 15 1
21 16 21
21 17 23
21 18 13
21 19 10
21 20 1
22 0 10
22 1 32
22 2 12
22 3 1
22 4 13
22 5 12
22 6 16
22 7 6
22 8 32
22 9 16
22 10 17
22 11 17
22 12 16
22 13 16
22 14 2
22 15 29
22 16 32
22 17 33
22 18 5
22 19 33
22 20 31
22 21 13
23 0 31
23 1 2
23 2 7
23 3 1
23 4 6
23 5 14
23 6 12
23 7 1
23 8 32
23 9 31
23 10 27
23 11 18
23 12 5
23 13 28
23 14 24
23 15 11
23 16 27
23 17 7
23 18 24
23 19 23
23 20 33
23 21 12
23 22 34
24 0 21
24 1 28
24 2 26
24 3 17
24 4 15
24 5 12
24 6 35
24 7 6
24 8 6
24 9 29
24 10 2
24 11 27
24 12 32
24 13 15
24 14 10
24 15 5
24 16 16
24 17 28
24 18 19
24 19 15
24 20 29
24 21 4
24 22 12
24 23 21
25 0 12
25 1 34
25 2 12
25 3 30
25 4 14
25 5 17
25 6 6
25 7 10
25 8 7
25 9 33
25 10 14
25 11 24
25 12 1
25 13 10
25 14 15
25 15 4
25 16 31
25 17 4
25 18 20
25 19 32
25 20 15
25 21 35
25 22 2
25 23 15
25 24 22
26 0 9
26 1 23
26 2 6
26 3 23
26 4 17
26 5 21
26 6 13
26 7 29
26 8 18
26 9 16
26 10 15
26 11 20
26 12 28
26 13 19
26 14 11
26 15 26
26 16 3
26 17 31
26 18 3
26 19 3
26 20 28
26 21 33
26 22 10
26 23 2
26 24 31
26 25 4
27 0 11
27 1 31
27 2 33
27 3 16
27 4 26
27 5 9
27 6 21
27 7 26
27 8 26
27 9 2
27 10 23
27 11 20
27 12 2
27 13 6
27 14 20
27 15 28
27 16 16
27 17 2
27 18 6
27 19 31
27 20 13
27 21 35
27 22 19
27 23 6
27 24 13
27 25 22
27 26 28
28 0 7
28 1 13
28 2 25
28 3 29
28 4 22
28 5 35
28 6 1
28 7 22
28 8 8
28 9 13
28 10 30
28 11 15
28 12 3
28 13 13
28 14 10
28 15 26
28 16 2
28 17 1
28 18 24
28 19 22
28 20 30
28 21 15
28 22 25
28 23 31
28 24 24
28 25 25
28 26 29
28 27 22
29 0 33
29 1 26
29 2 13
29 3 15
29 4 28
29 5 18
29 6 7
29 7 17
29 8 7
29 9 18
29 10 1
29 11 4
29 12 32
29 13 20
29 14 16
29 15 4
29 16 28
29 17 31
29 18 26
29 19 32
29 20 29
29 21 9
29 22 20
29 23 25
29 24 13
29 25 24
29 26 7
29 27 22
29 28 2
30 0 29
30 1 9
30 2 4
30 3 19
30 4 14
30 5 22
30 6 23
30 7 35
30 8 25
30 9 11
30 10 25
30 11 3
30 12 19
30 13 10
30 14 20
30 15 29
30 16 5
30 17 24
30 18 7
30 19 16
30 20 13
30 21 29
30 22 27
30 23 9
30 24 31
30 25 28
30 26 29
30 27 4
30 28 28
30 29 33
31 0 32
31 1 35
31 2 33
31 3 8
31 4 22
31 5 32
31 6 30
31 7 3
31 8 21
31 9 30
31 10 8
31 11 31
31 12 4
31 13 21
31 14 8
31 15 16
31 16 24
31 17 34
31 18 28
31 19 22
31 20 28
31 21 11
31 22 15
31 23 29
31 24 26
31 25 16
31 26 17
31 27 33
31 28 17
31 29 30
31 30 1
32 0 1
32 1 16
32 2 33
32 3 9
32 4 21
32 5 4
32 6 15
32 7 13
32 8 33
32 9 33
32 10 33
32 11 3
32 12 35
32 13 11
32 14 35
32 15 18
32 16 9
32 17 2
32 18 31
32 19 17
32 20 22
32 21 34
32 22 32
32 23 23
32 24 33
32 25 22
32 26 35
32 27 19
32 28 8
32 29 33
32 30 11
32 31 25
33 0 2
33 1 21
33 2 35
33 3 20
33 4 1
33 5 4
33 6 32
33 7 16
33 8 19
33 9 12
33 10 12
33 11 11
33 12 24
33 13 22
33 14 14
33 15 23
33 16 16
33 17 22
33 18 19
33 19 29
33 20 11
33 21 5
33 22 8
33 23 33
33 24 2
33 25 28
33 26 33
33 27 28
33 28 10
33 29 25
33 30 35
33 31 21
33 32 4
34 0 25
34 1 21
34 2 18
34 3 30
34 4 11
34 5 15
34 6 4
34 7 17
34 8 29
34 9 21
34 10 18
34 11 33
34 12 5
34 13 24
34 14 22
34 15 24
34 16 3
34 17 13
34 18 22
34 19 18
34 20 20
34 21 15
34 22 2
34 23 23
34 24 28
34 25 25
34 26 26
34 27 5
34 28 33
34 29 5
34 30 14
34 31 24
34 32 22
34 33 19
35 0 3
35 1 1
35 2 31
35 3 8
35 4 13
35 5 17
35 6 8
35 7 16
35 8 5
35 9 19
35 10 13
35 11 15
35 12 13
35 13 16
35 14 6
35 15 2
35 16 4
35 17 3
35 18 24
35 19 30
35 20 32
35 21 29
35 22 22
35 23 34
35 24 33
35 25 4
35 26 29
35 27 21
35 28 1
35 29 17
35 30 34
35 31 31
35 32 32
35 33 2
35 34 29
36 0 24
36 1 22
36 2 8
36 3 20
36 4 34
36 5 35
36 6 3
36 7 19
36 8 25
36 9 16
36 10 33
36 11 11
36 12 15
36 13 18
36 14 28
36 15 17
36 16 31
36 17 34
36 18 5
36 19 5
36 20 19
36 21 18
36 22 25
36 23 35
36 24 27
36 25 6
36 26 15
36 27 23
36 28 27
36 29 30
36 30 27
36 31 18
36 32 7
36 33 3
36 34 11
36 35 16
37 0 9
37 1 21
37 2 26
37 3 2
37 4 6
37 5 8
37 6 35
37 7 26
37 8 17
37 9 10
37 10 13
37 11 34
37 12 31
37 13 26
37 14 16
37 15 20
37 16 13
37 17 17
37 18 20
37 19 33
37 20 15
37 21 18
37 22 17
37 23 7
37 24 16
37 25 6
37 26 16
37 27 34
37 28 1
37 29 4
37 30 6
37 31 19
37 32 17
37 33 21
37 34 10
37 35 29
37 36 29
38 0 14
38 1 35
38 2 6
38 3 6
38 4 24
38 5 9
38 6 21
38 7 1
38 8 4
38 9 34
38 10 28
38 11 11
38 12 7
38 13 10
38 14 14
38 15 27
38 16 13
38 17 24
38 18 10
38 19 3
38 20 4
38 21 17
38 22 12
38 23 11
38 24 26
38 25 31
38 26 29
38 27 26
38 28 4
38 29 31
38 30 28
38 31 34
38 32 12
38 33 28
38 34 35
38 35 13
38 36 3
38 37 21
39 0 21
39 1 12
39 2 28
39 3 33
39 4 30
39 5 6
39 6 25
39 7 13
39 8 28
39 9 7
39 10 30
39 11 32
39 12 33
39 13 26
39 14 10
39 15 17
39 16 13
39 17 30
39 18 33
39 19 8
39 20 6
39 21 35
39 22 9
39 23 5
39 24 8
39 25 3
39 26 22
39 27 20
39 28 28
39 29 28
39 30 12
39 31 7
39 32 15
39 33 16
39 34 26
39 35 30
39 36 11
39 37 17
39 38 10
40 0 7
40 1 22
40 2 10
40 3 16
40 4 31
40 5 5
40 6 9
40 7 35
40 8 3
40 9 21
40 10 6
40 11 6
40 12 18
40 13 24
40 14 31
40 15 18
40 16 31
40 17 6
40 18 29
40 19 9
40 20 26
40 21 27
40 22 29
40 23 13
40 24 8
40 25 7
40 26 22
40 27 15
40 28 3
40 29 20
40 30 20
40 31 25
40 32 29
40 33 30
40 34 24
40 35 13
40 36 34
40 37 5
40 38 3
40 39 25
41 0 30
41 1 34
41 2 7
41 3 25
41 4 17
41 5 2
41 6 27
41 7 2
41 8 5
41 9 30
41 10 27
41 11 7
41 12 32
41 13 2
41 14 19
41 15 11
41 16 12
41 17 1
41 18 21
41 19 17
41 20 32
41 21 18
41 22 9
41 23 23
41 24 33
41 25 11
41 26 33
41 27 33
41 28 7
41 29 28
41 30 10
41 31 18
41 32 8
41 33 6
41 34 16
41 35 35
41 36 6
41 37 2
41 38 19
41 39 9
41 40 1
42 0 4
42 1 17
42 2 26
42 3 27
42 4 7
42 5 18
42 6 6
42 7 18
42 8 16
42 9 18
42 10 31
42 11 15
42 12 22
42 13 34
42 14 8
42 15 28
42 16 6
42 17 20
42 18 35
42 19 6
42 20 7
42 21 16
42 22 11
42 23 14
42 24 35
42 25 25
42 26 6
42 27 33
42 28 30
42 29 18
42 30 35
42 31 21
42 32 27
42 33 12
42 34 32
42 35 35
42 36 19
42 37 26
42 38 1
42 39 32
42 40 32
42 41 28
43 0 16
43 1 14
43 2 22
43 3 16
43 4 11
43 5 3
43 6 9
43 7 29
43 8 13
43 9 29
43 10 29
43 11 19
43 12 18
43 13 8
43 14 28
43 15 1
43 16 14
43 17 9
43 18 18
43 19 16
43 20 7
43 21 32
43 22 35
43 23 16
43 24 32
43 25 4
43 26 22
43 27 20
43 28 21
43 29 29
43 30 3
43 31 5
43 32 12
43 33 10
43 34 26
43 35 31
43 36 32
43 37 28
43 38 18
43 39 22
43 40 7
43 41 18
43 42 3
44 0 28
44 1 8
44 2 6
44 3 32
44 4 22
44 5 11
44 6 23
44 7 11
44 8 13
44 9 4
44 10 24
44 11 31
44 12 20
44 13 16
44 14 15
44 15 20
44 16 24
44 17 19
44 18 20
44 19 8
44 20 9
44 21 8
44 22 33
44 23 8
44 24 21
44 25 21
44 26 8
44 27 14
44 28 18
44 29 13
44 30 27
44 31 24
44 32 24
44 33 28
44 34 6
44 35 35
44 36 28
44 37 12
44 38 23
44 39 8
44 40 15
44 41 28
44 42 16
44 43 21
45 0 34
45 1 7
45 2 35
45 3 19
45 4 29
45 5 32
45 6 14
45 7 27
45 8 35
45 9 33
45 10 27
45 11 21
45 12 4
45 13 35
45 14 28
45 15 11
45 16 18
45 17 35
45 18 12
45 19 4
45 20 26
45 21 2
45 22 18
45 23 18
45 24 29
45 25 10
45 26 24
45 27 10
45 28 31
45 29 17
45 30 11
45 31 2
45 32 16
45 33 9
45 34 15
45 35 5
45 36 29
45 37 20
45 38 15
45 39 20
45 40 1
45 41 27
45 42 14
45 43 8
45 44 31
46 0 3
46 1 3
46 2 31
46 3 3
46 4 25
46 5 34
46 6 33
46 7 21
46 8 34
46 9 29
46 10 3
46 11 29
46 12 17
46 13 32
46 14 35
46 15 2
46 16 34
46 17 33
46 18 4
46 19 2
46 20 14
46 21 30
46 22 26
46 23 18
46 24 18
46 25 17
46 26 13
46 27 33
46 28 28
46 29 27
46 30 22
46 31 17
46 32 22
46 33 18
46 34 21
46 35 33
46 36 2
46 37 15
46 38 7
46 39 27
46 40 27
46 41 31
46 42 31
46 43 27
46 44 15
46 45 6
47 0 26
47 1 2
47 2 3
47 3 13
47 4 3
47 5 6
47 6 22
47 7 31
47 8 1
47 9 20
47 10 16
47 11 3
47 12 5
47 13 1
47 14 17
47 15 32
47 16 31
47 17 7
47 18 20
47 19 16
47 20 34
47 21 3
47 22 3
47 23 9
47 24 35
47 25 21
47 26 20
47 27 23
47 28 4
47 29 10
47 30 3
47 31 33
47 32 6
47 33 32
47 34 4
47 35 34
47 36 4
47 37 13
47 38 19
47 39 12
47 40 9
47 41 18
47 42 34
47 43 9
47 44 23
47 45 7
47 46 32
48 0 32
48 1 4
48 2 5
48 3 20
48 4 4
48 5 4
48 6 22
48 7 19
48 8 32
48 9 24
48 10 5
48 11 24
48 12 1
48 13 13
48 14 21
48 15 10
48 16 6
48 17 25
48 18 10
48 19 1
48 20 15
48 21 22
48 22 9
48 23 24
48 24 12
48 25 25
48 26 17
48 27 5
48 28 18
48 29 23
48 30 35
48 31 9
48 32 29
48 33 29
48 34 2
48 35 6
48 36 9
48 37 3
48 38 22
48 39 14
48 40 13
48 41 12
48 42 6
48 43 1
48 44 29
48 45 35
48 46 16
48 47 6
49 0 9
49 1 27
49 2 18
49 3 5
49 4 17
49 5 23
49 6 14
49 7 2
49 8 4
49 9 8
49 10 8
49 11 30
49 12 29
49 13 16
49 14 13
49 15 9
49 16 21
49 17 9
49 18 11
49 19 16
49 20 13
49 21 10
49 22 6
49 23 8
49 24 12
49 25 11
49 26 33
49 27 18
49 28 27
49 29 21
49 30 34
49 31 21
49 32 30
49 33 13
49 34 14
49 35 11
49 36 34
49 37 10
49 38 12
49 39 12
49 40 34
49 41 15
49 42 2
49 43 8
49 44 10
49 45 11
49 46 23
49 47 15
49 48 31
50 0 34
50 1 25
50 2 8
50 3 15
50 4 30
50 5 7
50 6 19
50 7 32
50 8 14
50 9 7
50 10 20
50 11 9
50 12 12
50 13 24
50 14 17
50 15 31
50 16 13
50 17 9
50 18 18
50 19 25
50 20 4
50 21 12
50 22 21
50 23 3
50 24 6
50 25 22
50 26 35
50 27 11
50 28 25
50 29 14
50 30 25
50 31 2
50 32 2
50 33 16
50 34 20
50 35 26
50 36 5
50 37 11
50 38 13
50 39 23
50 40 14
50 41 1
50 42 13
50 43 11
50 44 18
50 45 9
50 46 10
50 47 13
50 48 34
50 49 24
51 0 2
51 1 12
51 2 19
51 3 14
51 4 12
51 5 21
51 6 2
51 7 32
51 8 33
51 9 11
51 10 33
51 11 15
51 12 26
51 13 35
51 14 24
51 15 2
51 16 10
51 17 35
51 18 1
51 19 30
51 20 17
51 21 14
51 22 18
51 23 29
51 24 14
51 25 18
51 26 23
51 27 19
51 28 14
51 29 14
51 30 4
51 31 19
51 32 5
51 33 11
51 34 11
51 35 5
51 36 8
51 37 10
51 38 25
51 39 6
51 40 11
51 41 26
51 42 11
51 43 21
51 44 7
51 45 6
51 46 13
51 47 7
51 48 3
51 49 4
51 50 14
52 0 23
52 1 31
52 2 8
52 3 24
52 4 4
52 5 26
52 6 33
52 7 11
52 8 14
52 9 17
52 10 32
52 11 30
52 12 29
52 13 9
52 14 24
52 15 29
52 16 22
52 17 8
52 18 24
52 19 10
52 20 26
52 21 5
52 22 35
52 23 28
52 24 27
52 25 13
52 26 13
52 27 20
52 28 24
52 29 7
52 30 4
52 31 18
52 32 4
52 33 9
52 34 9
52 35 3
52 36 18
52 37 19
52 38 33
52 39 5
52 40 22
52 41 35
52 42 28
52 43 28
52 44 21
52 45 17
52 46 6
52 47 20
52 48 16
52 49 9
52 50 29
52 51 26
53 0 34
53 1 29
53 2 7
53 3 8
53 4 24
53 5 16
53 6 25
53 7 31
53 8 11
53 9 27
53 10 3
53 11 16
53 12 31
53 13 8
53 14 26
53 15 15
53 16 23
53 17 16
53 18 7
53 19 18
53 20 31
53 21 17
53 22 23
53 23 16
53 24 32
53 25 1
53 26 33
53 27 17
53 28 15
53 29 14
53 30 12
53 31 16
53 32 8
53 33 11
53 34 8
53 35 28
53 36 31
53 37 34
53 38 17
53 39 23
53 40 29
53 41 4
53 42 35
53 43 15
53 44 34
53 45 34
53 46 27
53 47 15
53 48 35
53 49 32
53 50 18
53 51 28
53 52 23
54 0 3
54 1 25
54 2 27
54 3 23
54 4 18
54 5 19
54 6 16
54 7 24
54 8 13
54 9 3
54 10 14
54 11 22
54 12 25
54 13 20
54 14 16
54 15 23
54 16 8
54 17 5
54 18 6
54 19 27
54 20 10
54 21 26
54 22 11
54 23 20
54 24 15
54 25 12
54 26 10
54 27 32
54 28 26
54 29 28
54 30 31
54 31 34
54 32 29
54 33 29
54 34 13
54 35 19
54 36 15
54 37 32
54 38 24
54 39 16
54 40 35
54 41 11
54 42 24
54 43 5
54 44 20
54 45 10
54 46 11
54 47 30
54 48 22
54 49 4
54 50 10
54 51 15
54 52 12
54 53 33
55 0 34
55 1 34
55 2 29
55 3 6
55 4 31
55 5 13
55 6 12
55 7 34
55 8 16
55 9 18
55 10 4
55 11 8
55 12 2
55 13 30
55 14 21
55 15 3
55 16 3
55 17 1
55 18 19
55 19 17
55 20 34
55 21 10
55 22 10
55 23 29
55 24 1
55 25 33
55 26 7
55 27 27
55 28 23
55 29 25
55 30 33
55 31 30
55 32 25
55 33 14
55 34 2
55 35 20
55 36 15
55 37 35
55 38 9
55 39 26
55 40 18
55 41 13
55 42 6
55 43 23
55 44 7
55 45 22
55 46 19
55 47 9
55 48 23
55 49 22
55 50 3
55 51 2
55 52 28
55 53 10
55 54 22
56 0 1
56 1 8
56 2 24
56 3 31
56 4 10
56 5 6
56 6 3
56 7 18
56 8 11
56 9 21
56 10 2
56 11 2
56 12 18
56 13 25
56 14 34
56 15 17
56 16 25
56 17 24
56 18 5
56 19 10
56 20 35
56 21 6
56 22 9
56 23 27
56 24 24
56 25 32
56 26 12
56 27 2
56 28 21
56 29 2
56 30 24
56 31 34
56 32 31
56 33 34
56 34 11
56 35 35
56 36 21
56 37 19
56 38 16
56 39 31
56 40 23
56 41 34
56 42 33
56 43 9
56 44 12
56 45 19
56 46 28
56 47 33
56 48 5
56 49 26
56 50 19
56 51 14
56 52 14
56 53 24
56 54 22
56 55 15
57 0 16
57 1 14
57 2 2
57 3 17
57 4 20
57 5 13
57 6 18
57 7 30
57 8 22
57 9 2
57 10 7
57 11 24
57 12 9
57 13 13
57 14 4
57 15 17
57 16 21
57 17 29
57 18 26
57 19 34
57 20 29
57 21 7
57 22 15
57 23 31
57 24 32
57 25 31
57 26 21
57 27 14
57 28 4
57 29 10
57 30 30
57 31 16
57 32 21
57 33 30
57 34 9
57 35 18
57 36 9
57 37 15
57 38 2
57 39 11
57 40 18
57 41 16
57 42 32
57 43 7
57 44 15
57 45 33
57 46 19
57 47 34
57 48 3
57 49 6
57 50 27
57 51 27
57 52 34
57 53 26
57 54 34
57 55 8
57 56 14
58 0 8
58 1 16
58 2 21
58 3 12
58 4 25
58 5 11
58 6 7
58 7 28
58 8 31
58 9 4
58 10 28
58 11 21
58 12 21
58 13 28
58 14 10
58 15 28
58 16 27
58 17 3
58 18 15
58 19 23
58 20 10
58 21 16
58 22 14
58 23 10
58 24 15
58 25 33
58 26 33
58 27 34
58 28 19
58 29 26
58 30 1
58 31 14
58 32 6
58 33 5
58 34 3
58 35 9
58 36 8
58 37 18
58 38 22
58 39 16
58 40 7
58 41 7
58 42 30
58 43 9
58 44 4
58 45 9
58 46 2
58 47 20
58 48 20
58 49 9
58 50 10
58 51 30
58 52 29
58 53 22
58 54 28
58 55 19
58 56 33
58 57 19
59 0 31
59 1 5
59 2 20
59 3 1
59 4 29
59 5 2
59 6 31
59 7 25
59 8 3
59 9 28
59 10 6
59 11 34
59 12 32
59 13 16
59 14 1
59 15 16
59 16 19
59 17 15
59 18 19
59 19 2
59 20 20
59 21 26
59 22 31
59 23 32
59 24 1
59 25 9
59 26 22
59 27 27
59 28 20
59 29 3
59 30 9
59 31 7
59 32 16
59 33 27
59 34 33
59 35 6
59 36 7
59 37 26
59 38 20
59 39 1
59 40 18
59 41 22
59 42 11
59 43 5
59 44 26
59 45 6
59 46 22
59 47 7
59 48 12
59 49 25
59 50 10
59 51 23
59 52 34
59 53 29
59 54 19
59 55 7
59 56 25
59 57 7
59 58 34
60 0 19
60 1 28
60 2 4
60 3 22
60 4 28
60 5 15
60 6 35
60 7 6
60 8 9
60 9 32
60 10 32
60 11 33
60 12 22
60 13 10
60 14 2
60 15 5
60 16 10
60 17 26
60 18 12
60 19 21
60 20 32
60 21 33
60 22 3
60 23 31
60 24 12
60 25 32
60 26 35
60 27 18
60 28 3
60 29 25
60 30 6
60 31 19
60 32 12
60 33 25
60 34 23
60 35 14
60 36 13
60 37 34
60 38 30
60 39 22
60 40 9
60 41 21
60 42 6
60 43 26
60 44 25
60 45 24
60 46 32
60 47 18
60 48 15
60 49 28
60 50 35
60 51 11
60 52 6
60 53 18
60 54 27
60 55 16
60 56 5
60 57 35
60 58 34
60 59 18
